/* Objective function */
min: +C1;

/* Constraints */
+C2 +C3 +C4 +C5 +C6 +C7 +C8 +C9 +C10 +C11 +C12 +C13 +C14 +C15 +C16 = 1;
+C17 +C18 +C19 +C20 +C21 +C22 +C23 +C24 +C25 +C26 +C27 +C28 +C29 +C30 +C31 = 1;
+C32 +C33 +C34 +C35 +C36 +C37 +C38 +C39 +C40 +C41 +C42 +C43 +C44 +C45 +C46 = 2;
-C1 +52.1294528998 C2 +69.513209865 C17 +0.0141651921984 C32 <= -1175654.23168;
+0.12 C2 +0.12 C17 +0.001 C32 <= -9086.784;
-C1 +52.1294528998 C3 +69.513209865 C18 +0.0141651921984 C33 <= -1175929.75473;
+0.12 C3 +0.12 C18 +0.001 C33 <= -9089.784;
-C1 +52.1294528998 C4 +69.513209865 C19 +0.0141651921984 C34 <= -1176580.39363;
+0.12 C4 +0.12 C19 +0.001 C34 <= -9093.784;
-C1 +52.1294528998 C5 +69.513209865 C20 +0.0141651921984 C35 <= -1177304.06131;
+0.12 C5 +0.12 C20 +0.001 C35 <= -9098.784;
-C1 +52.1294528998 C6 +69.513209865 C21 +0.0141651921984 C36 <= -1177475.93244;
+0.12 C6 +0.12 C21 +0.001 C36 <= -9099.784;
-C1 +52.1294528998 C7 +69.513209865 C22 +0.0141651921984 C37 <= -1177475.93244;
+0.12 C7 +0.12 C22 +0.001 C37 <= -9099.784;
-C1 +52.1294528998 C8 +69.513209865 C23 +0.0141651921984 C38 <= -1176909.32475;
+0.12 C8 +0.12 C23 +0.001 C38 <= -9095.784;
-C1 +52.1294528998 C9 +69.513209865 C24 +0.0141651921984 C39 <= -1176401.30147;
+0.12 C9 +0.12 C24 +0.001 C39 <= -9091.784;
-C1 +52.1294528998 C10 +69.513209865 C25 +0.0141651921984 C40 <= -1176967.90916;
+0.12 C10 +0.12 C25 +0.001 C40 <= -9095.784;
-C1 +52.1294528998 C11 +69.513209865 C26 +0.0141651921984 C41 <= -1175720.63029;
+0.12 C11 +0.12 C26 +0.001 C41 <= -9086.784;
-C1 +52.1294528998 C12 +69.513209865 C27 +0.0141651921984 C42 <= -1175976.3457;
+0.12 C12 +0.12 C27 +0.001 C42 <= -9088.784;
-C1 +52.1294528998 C13 +69.513209865 C28 +0.0141651921984 C43 <= -1168327.14192;
+0.12 C13 +0.12 C28 +0.001 C43 <= -9034.784;
-C1 +52.1294528998 C14 +69.513209865 C29 +0.0141651921984 C44 <= -1168327.14192;
+0.12 C14 +0.12 C29 +0.001 C44 <= -9034.784;
-C1 +52.1294528998 C15 +69.513209865 C30 +0.0141651921984 C45 <= -1184583.8869;
+0.12 C15 +0.12 C30 +0.001 C45 <= -9162.784;
-C1 +52.1294528998 C16 +69.513209865 C31 +0.0141651921984 C46 <= -1192233.09068;
+0.12 C16 +0.12 C31 +0.001 C46 <= -9216.784;
+C2 +C3 <= 1;
+C2 +C4 <= 1;
+C2 +C5 <= 1;
+C2 +C6 <= 1;
+C2 +C7 <= 1;
+C2 +C8 <= 1;
+C2 +C9 <= 1;
+C2 +C10 <= 1;
+C2 +C11 <= 1;
+C2 +C12 <= 1;
+C2 +C13 <= 1;
+C2 +C14 <= 1;
+C2 +C15 <= 1;
+C2 +C16 <= 1;
+C3 +C4 <= 1;
+C3 +C5 <= 1;
+C3 +C6 <= 1;
+C3 +C7 <= 1;
+C3 +C8 <= 1;
+C3 +C9 <= 1;
+C3 +C10 <= 1;
+C3 +C11 <= 1;
+C3 +C12 <= 1;
+C3 +C13 <= 1;
+C3 +C14 <= 1;
+C3 +C15 <= 1;
+C3 +C16 <= 1;
+C4 +C5 <= 1;
+C4 +C6 <= 1;
+C4 +C7 <= 1;
+C4 +C8 <= 1;
+C4 +C9 <= 1;
+C4 +C10 <= 1;
+C4 +C11 <= 1;
+C4 +C12 <= 1;
+C4 +C13 <= 1;
+C4 +C14 <= 1;
+C4 +C15 <= 1;
+C4 +C16 <= 1;
+C5 +C6 <= 1;
+C5 +C7 <= 1;
+C5 +C8 <= 1;
+C5 +C9 <= 1;
+C5 +C10 <= 1;
+C5 +C11 <= 1;
+C5 +C12 <= 1;
+C5 +C13 <= 1;
+C5 +C14 <= 1;
+C5 +C15 <= 1;
+C5 +C16 <= 1;
+C6 +C7 <= 1;
+C6 +C8 <= 1;
+C6 +C9 <= 1;
+C6 +C10 <= 1;
+C6 +C11 <= 1;
+C6 +C12 <= 1;
+C6 +C13 <= 1;
+C6 +C14 <= 1;
+C6 +C15 <= 1;
+C6 +C16 <= 1;
+C7 +C8 <= 1;
+C7 +C9 <= 1;
+C7 +C10 <= 1;
+C7 +C11 <= 1;
+C7 +C12 <= 1;
+C7 +C13 <= 1;
+C7 +C14 <= 1;
+C7 +C15 <= 1;
+C7 +C16 <= 1;
+C8 +C9 <= 1;
+C8 +C10 <= 1;
+C8 +C11 <= 1;
+C8 +C12 <= 1;
+C8 +C13 <= 1;
+C8 +C14 <= 1;
+C8 +C15 <= 1;
+C8 +C16 <= 1;
+C9 +C10 <= 1;
+C9 +C11 <= 1;
+C9 +C12 <= 1;
+C9 +C13 <= 1;
+C9 +C14 <= 1;
+C9 +C15 <= 1;
+C9 +C16 <= 1;
+C10 +C11 <= 1;
+C10 +C12 <= 1;
+C10 +C13 <= 1;
+C10 +C14 <= 1;
+C10 +C15 <= 1;
+C10 +C16 <= 1;
+C11 +C12 <= 1;
+C11 +C13 <= 1;
+C11 +C14 <= 1;
+C11 +C15 <= 1;
+C11 +C16 <= 1;
+C12 +C13 <= 1;
+C12 +C14 <= 1;
+C12 +C15 <= 1;
+C12 +C16 <= 1;
+C13 +C14 <= 1;
+C13 +C15 <= 1;
+C13 +C16 <= 1;
+C14 +C15 <= 1;
+C14 +C16 <= 1;
+C15 +C16 <= 1;
+C17 +C18 <= 1;
+C17 +C19 <= 1;
+C17 +C20 <= 1;
+C17 +C21 <= 1;
+C17 +C22 <= 1;
+C17 +C23 <= 1;
+C17 +C24 <= 1;
+C17 +C25 <= 1;
+C17 +C26 <= 1;
+C17 +C27 <= 1;
+C17 +C28 <= 1;
+C17 +C29 <= 1;
+C17 +C30 <= 1;
+C17 +C31 <= 1;
+C18 +C19 <= 1;
+C18 +C20 <= 1;
+C18 +C21 <= 1;
+C18 +C22 <= 1;
+C18 +C23 <= 1;
+C18 +C24 <= 1;
+C18 +C25 <= 1;
+C18 +C26 <= 1;
+C18 +C27 <= 1;
+C18 +C28 <= 1;
+C18 +C29 <= 1;
+C18 +C30 <= 1;
+C18 +C31 <= 1;
+C19 +C20 <= 1;
+C19 +C21 <= 1;
+C19 +C22 <= 1;
+C19 +C23 <= 1;
+C19 +C24 <= 1;
+C19 +C25 <= 1;
+C19 +C26 <= 1;
+C19 +C27 <= 1;
+C19 +C28 <= 1;
+C19 +C29 <= 1;
+C19 +C30 <= 1;
+C19 +C31 <= 1;
+C20 +C21 <= 1;
+C20 +C22 <= 1;
+C20 +C23 <= 1;
+C20 +C24 <= 1;
+C20 +C25 <= 1;
+C20 +C26 <= 1;
+C20 +C27 <= 1;
+C20 +C28 <= 1;
+C20 +C29 <= 1;
+C20 +C30 <= 1;
+C20 +C31 <= 1;
+C21 +C22 <= 1;
+C21 +C23 <= 1;
+C21 +C24 <= 1;
+C21 +C25 <= 1;
+C21 +C26 <= 1;
+C21 +C27 <= 1;
+C21 +C28 <= 1;
+C21 +C29 <= 1;
+C21 +C30 <= 1;
+C21 +C31 <= 1;
+C22 +C23 <= 1;
+C22 +C24 <= 1;
+C22 +C25 <= 1;
+C22 +C26 <= 1;
+C22 +C27 <= 1;
+C22 +C28 <= 1;
+C22 +C29 <= 1;
+C22 +C30 <= 1;
+C22 +C31 <= 1;
+C23 +C24 <= 1;
+C23 +C25 <= 1;
+C23 +C26 <= 1;
+C23 +C27 <= 1;
+C23 +C28 <= 1;
+C23 +C29 <= 1;
+C23 +C30 <= 1;
+C23 +C31 <= 1;
+C24 +C25 <= 1;
+C24 +C26 <= 1;
+C24 +C27 <= 1;
+C24 +C28 <= 1;
+C24 +C29 <= 1;
+C24 +C30 <= 1;
+C24 +C31 <= 1;
+C25 +C26 <= 1;
+C25 +C27 <= 1;
+C25 +C28 <= 1;
+C25 +C29 <= 1;
+C25 +C30 <= 1;
+C25 +C31 <= 1;
+C26 +C27 <= 1;
+C26 +C28 <= 1;
+C26 +C29 <= 1;
+C26 +C30 <= 1;
+C26 +C31 <= 1;
+C27 +C28 <= 1;
+C27 +C29 <= 1;
+C27 +C30 <= 1;
+C27 +C31 <= 1;
+C28 +C29 <= 1;
+C28 +C30 <= 1;
+C28 +C31 <= 1;
+C29 +C30 <= 1;
+C29 +C31 <= 1;
+C30 +C31 <= 1;
+C32 +C34 <= 1;
+C32 +C35 <= 1;
+C32 +C36 <= 1;
+C32 +C37 <= 1;
+C32 +C38 <= 1;
+C32 +C39 <= 1;
+C32 +C40 <= 1;
+C32 +C41 <= 1;
+C32 +C42 <= 1;
+C32 +C43 <= 1;
+C32 +C44 <= 1;
+C32 +C45 <= 1;
+C32 +C46 <= 1;
+C33 +C35 <= 1;
+C33 +C36 <= 1;
+C33 +C37 <= 1;
+C33 +C38 <= 1;
+C33 +C39 <= 1;
+C33 +C40 <= 1;
+C33 +C41 <= 1;
+C33 +C42 <= 1;
+C33 +C43 <= 1;
+C33 +C44 <= 1;
+C33 +C45 <= 1;
+C33 +C46 <= 1;
+C34 +C36 <= 1;
+C34 +C37 <= 1;
+C34 +C38 <= 1;
+C34 +C39 <= 1;
+C34 +C40 <= 1;
+C34 +C41 <= 1;
+C34 +C42 <= 1;
+C34 +C43 <= 1;
+C34 +C44 <= 1;
+C34 +C45 <= 1;
+C34 +C46 <= 1;
+C35 +C37 <= 1;
+C35 +C38 <= 1;
+C35 +C39 <= 1;
+C35 +C40 <= 1;
+C35 +C41 <= 1;
+C35 +C42 <= 1;
+C35 +C43 <= 1;
+C35 +C44 <= 1;
+C35 +C45 <= 1;
+C35 +C46 <= 1;
+C36 +C38 <= 1;
+C36 +C39 <= 1;
+C36 +C40 <= 1;
+C36 +C41 <= 1;
+C36 +C42 <= 1;
+C36 +C43 <= 1;
+C36 +C44 <= 1;
+C36 +C45 <= 1;
+C36 +C46 <= 1;
+C37 +C39 <= 1;
+C37 +C40 <= 1;
+C37 +C41 <= 1;
+C37 +C42 <= 1;
+C37 +C43 <= 1;
+C37 +C44 <= 1;
+C37 +C45 <= 1;
+C37 +C46 <= 1;
+C38 +C40 <= 1;
+C38 +C41 <= 1;
+C38 +C42 <= 1;
+C38 +C43 <= 1;
+C38 +C44 <= 1;
+C38 +C45 <= 1;
+C38 +C46 <= 1;
+C39 +C41 <= 1;
+C39 +C42 <= 1;
+C39 +C43 <= 1;
+C39 +C44 <= 1;
+C39 +C45 <= 1;
+C39 +C46 <= 1;
+C40 +C42 <= 1;
+C40 +C43 <= 1;
+C40 +C44 <= 1;
+C40 +C45 <= 1;
+C40 +C46 <= 1;
+C41 +C43 <= 1;
+C41 +C44 <= 1;
+C41 +C45 <= 1;
+C41 +C46 <= 1;
+C42 +C44 <= 1;
+C42 +C45 <= 1;
+C42 +C46 <= 1;
+C43 +C45 <= 1;
+C43 +C46 <= 1;
+C44 +C46 <= 1;

/* Variable bounds */
C2 <= 1;
C3 <= 1;
C4 <= 1;
C5 <= 1;
C6 <= 1;
C7 <= 1;
C8 <= 1;
C9 <= 1;
C10 <= 1;
C11 <= 1;
C12 <= 1;
C13 <= 1;
C14 <= 1;
C15 <= 1;
C16 <= 1;
C17 <= 1;
C18 <= 1;
C19 <= 1;
C20 <= 1;
C21 <= 1;
C22 <= 1;
C23 <= 1;
C24 <= 1;
C25 <= 1;
C26 <= 1;
C27 <= 1;
C28 <= 1;
C29 <= 1;
C30 <= 1;
C31 <= 1;
C32 <= 1;
C33 <= 1;
C34 <= 1;
C35 <= 1;
C36 <= 1;
C37 <= 1;
C38 <= 1;
C39 <= 1;
C40 <= 1;
C41 <= 1;
C42 <= 1;
C43 <= 1;
C44 <= 1;
C45 <= 1;
C46 <= 1;

/* Integer definitions */
int C2,C3,C4,C5,C6,C7,C8,C9,C10,C11,C12,C13,C14,C15,C16,C17,C18,C19,C20,C21,C22,C23,C24,C25,C26,C27,C28,C29,C30,C31,C32,C33,C34,C35,C36,C37,C38,C39,C40,C41,C42,C43,C44,C45,C46;
